* ENCODING=ISO-8859-1
NAME          CPLEX
ROWS
 N  obj1    
 G  c1      
 G  c2      
 G  c3      
 G  c4      
 G  c5      
 G  c6      
 G  c7      
 G  c8      
 G  c9      
 G  c10     
 G  c11     
 G  c12     
 G  c13     
 G  c14     
 G  c15     
 G  c16     
 G  c17     
 G  c18     
 G  c19     
 G  c20     
 G  c21     
 G  c22     
 G  c23     
 G  c24     
 G  c25     
 G  c26     
 G  c27     
 G  c28     
 G  c29     
 G  c30     
 G  c31     
 G  c32     
 G  c33     
 G  c34     
 G  c35     
 G  c36     
 G  c37     
 G  c38     
 G  c39     
 G  c40     
 G  c41     
 G  c42     
 G  c43     
 G  c44     
 G  c45     
 G  c46     
 G  c47     
 G  c48     
 G  c49     
 G  c50     
 G  c51     
 G  c52     
 G  c53     
 G  c54     
 G  c55     
 G  c56     
 G  c57     
 G  c58     
 G  c59     
 G  c60     
 G  c61     
 G  c62     
 G  c63     
 G  c64     
 G  c65     
 G  c66     
 G  c67     
 G  c68     
 G  c69     
 G  c70     
COLUMNS
    MARK0000  'MARKER'                 'INTORG'
    x1        obj1                            1
    x1        c3                            314
    x1        c8                            641
    x1        c30                           197
    x1        c32                           522
    x1        c45                           646
    x1        c54                           732
    x1        c58                           595
    x1        c60                           289
    x1        c69                           791
    x2        obj1                            1
    x2        c12                           672
    x2        c37                           780
    x2        c54                           480
    x2        c56                           729
    x2        c66                           517
    x3        obj1                            1
    x3        c12                           554
    x3        c24                           339
    x3        c53                           719
    x3        c68                           892
    x4        obj1                            1
    x4        c29                           181
    x4        c45                           339
    x4        c52                           253
    x4        c62                           261
    x4        c69                           975
    x4        c70                           381
    x5        obj1                            1
    x5        c2                            723
    x5        c4                            373
    x5        c24                           962
    x5        c31                           144
    x5        c34                           817
    x5        c41                           698
    x5        c46                           367
    x5        c63                           440
    x5        c68                           735
    x6        obj1                            1
    x6        c8                            482
    x6        c10                           469
    x6        c13                           179
    x6        c25                           807
    x6        c57                           341
    x7        obj1                            1
    x7        c5                            211
    x7        c6                            761
    x7        c12                           668
    x7        c23                           157
    x7        c26                           179
    x7        c29                           234
    x7        c31                           887
    x7        c45                           713
    x7        c46                           587
    x7        c66                           773
    x8        obj1                            1
    x8        c5                            673
    x8        c8                            936
    x8        c11                           231
    x8        c17                           423
    x8        c21                           578
    x8        c22                           656
    x8        c24                           441
    x8        c36                           922
    x8        c41                           492
    x8        c48                           801
    x8        c60                           268
    x9        obj1                            1
    x9        c26                           479
    x9        c34                           970
    x9        c47                           471
    x9        c52                           714
    x9        c56                           969
    x9        c58                           926
    x9        c69                           352
    x10       obj1                            1
    x10       c3                            956
    x10       c13                           570
    x10       c15                           846
    x10       c32                           687
    x11       obj1                            1
    x11       c10                           843
    x11       c13                           482
    x11       c16                           803
    x11       c45                           752
    x11       c46                           993
    x11       c48                           950
    x11       c49                           408
    x12       obj1                            1
    x12       c4                            896
    x12       c5                            689
    x12       c12                           925
    x12       c17                           773
    x12       c35                           267
    x12       c55                           323
    x12       c58                           750
    x12       c59                           276
    x12       c61                           137
    x13       obj1                            1
    x13       c17                           757
    x13       c19                           975
    x13       c22                           827
    x13       c37                           610
    x13       c54                           111
    x13       c58                           551
    x13       c68                           398
    x14       obj1                            1
    x14       c1                            946
    x14       c6                            356
    x14       c17                           964
    x14       c31                           167
    x14       c33                           371
    x14       c35                           727
    x14       c51                           549
    x15       obj1                            1
    x15       c4                            781
    x15       c35                           326
    x15       c44                           227
    x15       c56                           919
    x15       c67                           203
    x15       c68                           387
    x16       obj1                            1
    x16       c38                           682
    x16       c40                           191
    x16       c69                           776
    x17       obj1                            1
    x17       c10                           762
    x17       c14                           746
    x17       c18                           237
    x17       c20                           289
    x17       c21                           694
    x17       c26                           882
    x17       c44                           725
    x17       c47                           115
    x17       c55                           754
    x17       c62                           589
    x17       c67                           823
    x17       c70                           259
    x18       obj1                            1
    x18       c5                            459
    x18       c9                            713
    x18       c28                           807
    x18       c33                           880
    x18       c35                           398
    x19       obj1                            1
    x19       c1                            281
    x19       c4                            790
    x19       c18                           920
    x19       c30                           458
    x19       c41                           810
    x19       c43                           528
    x19       c45                           960
    x19       c46                           556
    x19       c47                           932
    x19       c55                           957
    x19       c62                           150
    x20       obj1                            1
    x20       c3                            842
    x20       c30                           578
    x20       c50                           386
    x20       c52                           218
    x20       c53                           119
    x20       c54                           368
    x20       c58                           963
    x20       c62                           871
    x21       obj1                            1
    x21       c8                            658
    x21       c38                           395
    x21       c49                           347
    x22       obj1                            1
    x22       c25                           989
    x22       c51                           472
    x22       c63                           443
    x22       c70                           935
    x23       obj1                            1
    x23       c1                            755
    x23       c6                            298
    x23       c10                           864
    x23       c11                           963
    x23       c18                           973
    x23       c36                           333
    x23       c39                           511
    x23       c42                           819
    x23       c45                           960
    x23       c64                           362
    x24       obj1                            1
    x24       c13                           258
    x24       c16                           819
    x24       c52                           280
    x24       c55                           333
    x24       c57                           245
    x25       obj1                            1
    x25       c28                           306
    x25       c33                           888
    x25       c54                           964
    x25       c69                           390
    x26       obj1                            1
    x26       c10                           750
    x26       c11                           984
    x26       c12                           353
    x26       c16                           631
    x26       c17                           974
    x26       c18                           910
    x26       c27                           497
    x26       c43                           910
    x26       c60                           829
    x27       obj1                            1
    x27       c1                            437
    x27       c5                            198
    x27       c7                            510
    x27       c11                           288
    x27       c25                           846
    x27       c32                           566
    x27       c67                           626
    x28       obj1                            1
    x28       c4                            139
    x28       c7                            767
    x28       c21                           986
    x28       c57                           335
    x28       c60                           151
    x28       c62                           838
    x28       c66                           748
    x29       obj1                            1
    x29       c1                            181
    x29       c15                           500
    x29       c18                           480
    x29       c20                           520
    x29       c24                           679
    x29       c35                           864
    x29       c49                           195
    x29       c56                           310
    x30       obj1                            1
    x30       c3                            299
    x30       c20                           656
    x30       c27                           434
    x30       c68                           419
    x31       obj1                            1
    x31       c6                            473
    x31       c18                           179
    x31       c33                           526
    x31       c38                           248
    x31       c42                           546
    x31       c49                           668
    x31       c55                           876
    x32       obj1                            1
    x32       c9                            603
    x32       c11                           130
    x32       c24                           944
    x32       c34                           652
    x32       c36                           500
    x32       c44                           404
    x32       c49                           207
    x32       c50                           990
    x32       c53                           241
    x32       c64                           422
    x33       obj1                            1
    x33       c1                            146
    x33       c3                            136
    x33       c7                            306
    x33       c16                           783
    x33       c17                           742
    x33       c30                           109
    x33       c40                           836
    x33       c54                           862
    x33       c57                           719
    x33       c61                           543
    x33       c65                           268
    x33       c70                           535
    x34       obj1                            1
    x34       c10                           415
    x34       c27                           731
    x34       c35                           120
    x34       c43                           230
    x34       c45                           777
    x34       c51                           834
    x34       c52                           760
    x34       c56                           900
    x34       c62                           954
    x34       c70                           503
    x35       obj1                            1
    x35       c8                            441
    x35       c52                           903
    x35       c55                           792
    x35       c59                           800
    x35       c60                           403
    x35       c61                           823
    x36       obj1                            1
    x36       c7                            955
    x36       c33                           460
    x36       c39                           915
    x36       c40                           822
    x36       c48                           815
    x36       c50                           837
    x36       c65                           493
    x36       c67                           372
    x36       c68                           241
    x37       obj1                            1
    x37       c1                            513
    x37       c28                           438
    x37       c52                           895
    x37       c57                           618
    x37       c65                           998
    x38       obj1                            1
    x38       c5                            543
    x38       c10                           335
    x38       c31                           754
    x38       c34                           499
    x38       c36                           464
    x38       c39                           883
    x38       c56                           925
    x38       c63                           593
    x38       c67                           264
    x39       obj1                            1
    x39       c12                           614
    x39       c26                           380
    x39       c30                           745
    x39       c48                           502
    x39       c59                           486
    x39       c60                           791
    x39       c66                           582
    x40       obj1                            1
    x40       c9                            928
    x40       c27                           936
    x40       c43                           975
    x40       c44                           513
    x40       c52                           781
    x41       obj1                            1
    x41       c3                            745
    x41       c7                            152
    x41       c25                           666
    x41       c59                           430
    x42       obj1                            1
    x42       c14                           719
    x42       c19                           571
    x42       c26                           331
    x42       c28                           510
    x42       c35                           192
    x42       c41                           207
    x42       c45                           954
    x42       c49                           551
    x43       obj1                            1
    x43       c35                           884
    x43       c43                           708
    x43       c46                           269
    x44       obj1                            1
    x44       c15                           323
    x44       c27                           210
    x44       c32                           142
    x44       c46                           788
    x44       c50                           488
    x44       c54                           600
    x44       c58                           755
    x45       obj1                            1
    x45       c19                           886
    x45       c21                           881
    x45       c22                           897
    x45       c25                           905
    x45       c31                           103
    x45       c32                           928
    x45       c38                           681
    x45       c60                           592
    x45       c64                           566
    x45       c70                           137
    x46       obj1                            1
    x46       c2                            256
    x46       c7                            817
    x46       c17                           180
    x46       c46                           775
    x46       c47                           579
    x46       c48                           282
    x47       obj1                            1
    x47       c4                            658
    x47       c5                            488
    x47       c14                           372
    x47       c21                           836
    x47       c22                           311
    x47       c27                           893
    x47       c32                           809
    x47       c40                           933
    x47       c43                           611
    x47       c49                           983
    x47       c70                           766
    x48       obj1                            1
    x48       c10                           824
    x48       c25                           114
    x48       c30                           177
    x48       c31                           720
    x48       c32                           765
    x48       c37                           584
    x48       c53                           799
    x49       obj1                            1
    x49       c10                           793
    x49       c17                           655
    x49       c22                           174
    x49       c38                           905
    x49       c42                           974
    x49       c65                           316
    x50       obj1                            1
    x50       c11                           517
    x50       c14                           209
    x50       c15                           361
    x50       c18                           456
    x50       c30                           482
    x50       c34                           890
    x50       c62                           876
    x50       c63                           523
    x50       c64                           556
    x50       c68                           900
    x51       obj1                            1
    x51       c6                            474
    x51       c7                            382
    x51       c27                           969
    x51       c42                           672
    x51       c46                           282
    x51       c53                           134
    x51       c55                           803
    x51       c58                           123
    x51       c68                           927
    x52       obj1                            1
    x52       c8                            793
    x52       c10                           781
    x52       c11                           821
    x52       c51                           376
    x52       c60                           239
    x52       c67                           626
    x53       obj1                            1
    x53       c8                            818
    x53       c11                           374
    x53       c21                           464
    x53       c38                           778
    x53       c53                           985
    x53       c68                           848
    x54       obj1                            1
    x54       c8                            446
    x54       c21                           800
    x54       c26                           572
    x54       c35                           486
    x54       c41                           326
    x55       obj1                            1
    x55       c9                            171
    x55       c24                           884
    x55       c29                           864
    x55       c34                           223
    x55       c47                           300
    x55       c51                           912
    x56       obj1                            1
    x56       c12                           731
    x56       c27                           354
    x56       c34                           447
    x56       c53                           637
    x56       c57                           278
    x57       obj1                            1
    x57       c2                            227
    x57       c21                           267
    x57       c22                           422
    x57       c28                           484
    x57       c32                           741
    x57       c38                           917
    x57       c39                           569
    x57       c41                           229
    x57       c55                           111
    x57       c61                           259
    x57       c64                           989
    x58       obj1                            1
    x58       c1                            998
    x58       c12                           398
    x58       c15                           515
    x58       c27                           260
    x58       c29                           437
    x58       c33                           188
    x58       c38                           788
    x58       c45                           904
    x58       c66                           392
    x59       obj1                            1
    x59       c2                            134
    x59       c15                           846
    x59       c21                           904
    x59       c38                           326
    x59       c63                           964
    x59       c67                           565
    x59       c68                           850
    x60       obj1                            1
    x60       c16                           724
    x60       c23                           301
    x60       c34                           627
    x60       c39                           187
    x60       c42                           781
    x60       c52                           757
    x60       c69                           787
    x61       obj1                            1
    x61       c1                            439
    x61       c22                           792
    x61       c31                           454
    x61       c33                           162
    x61       c39                           559
    x61       c47                           710
    x61       c49                           239
    x61       c60                           804
    x61       c67                           916
    x62       obj1                            1
    x62       c23                           460
    x62       c37                           773
    x62       c64                           429
    x63       obj1                            1
    x63       c15                           966
    x63       c24                           109
    x63       c58                           910
    x63       c62                           385
    x64       obj1                            1
    x64       c3                            258
    x64       c33                           912
    x64       c35                           733
    x64       c36                           491
    x64       c41                           128
    x64       c59                           579
    x64       c63                           822
    x65       obj1                            1
    x65       c2                            469
    x65       c19                           546
    x65       c22                           273
    x65       c29                           999
    x65       c51                           577
    x65       c58                           299
    x66       obj1                            1
    x66       c8                            285
    x66       c21                           383
    x66       c37                           306
    x66       c42                           609
    x66       c43                           587
    x66       c48                           672
    x66       c51                           698
    x66       c52                           656
    x66       c59                           490
    x66       c67                           993
    x67       obj1                            1
    x67       c2                            276
    x67       c31                           608
    x67       c56                           510
    x67       c66                           997
    x68       obj1                            1
    x68       c1                            691
    x68       c11                           659
    x68       c22                           270
    x68       c23                           241
    x68       c36                           819
    x68       c41                           427
    x68       c49                           256
    x68       c51                           627
    x68       c63                           935
    x69       obj1                            1
    x69       c20                           568
    x69       c37                           380
    x69       c51                           249
    x69       c58                           837
    x69       c62                           740
    x70       obj1                            1
    x70       c3                            570
    x70       c7                            333
    x70       c11                           191
    x70       c17                           407
    MARK0001  'MARKER'                 'INTEND'
RHS
    rhs       c1                           2694
    rhs       c2                           1043
    rhs       c3                           2060
    rhs       c4                           1819
    rhs       c5                           1631
    rhs       c6                           1181
    rhs       c7                           2111
    rhs       c8                           2750
    rhs       c9                           1208
    rhs       c10                          3418
    rhs       c11                          2579
    rhs       c12                          2458
    rhs       c13                           745
    rhs       c14                          1023
    rhs       c15                          2179
    rhs       c16                          1880
    rhs       c17                          2938
    rhs       c18                          2078
    rhs       c19                          1489
    rhs       c20                          1017
    rhs       c21                          3397
    rhs       c22                          2311
    rhs       c23                           580
    rhs       c24                          2179
    rhs       c25                          2164
    rhs       c26                          1412
    rhs       c27                          2642
    rhs       c28                          1273
    rhs       c29                          1358
    rhs       c30                          1373
    rhs       c31                          1919
    rhs       c32                          2580
    rhs       c33                          2194
    rhs       c34                          2563
    rhs       c35                          2499
    rhs       c36                          1765
    rhs       c37                          1717
    rhs       c38                          2860
    rhs       c39                          1812
    rhs       c40                          1391
    rhs       c41                          1659
    rhs       c42                          2201
    rhs       c43                          2275
    rhs       c44                           935
    rhs       c45                          3503
    rhs       c46                          2309
    rhs       c47                          1554
    rhs       c48                          2011
    rhs       c49                          1927
    rhs       c50                          1351
    rhs       c51                          2647
    rhs       c52                          3109
    rhs       c53                          1817
    rhs       c54                          2059
    rhs       c55                          2475
    rhs       c56                          2631
    rhs       c57                          1268
    rhs       c58                          3355
    rhs       c59                          1531
    rhs       c60                          2183
    rhs       c61                           881
    rhs       c62                          2832
    rhs       c63                          2360
    rhs       c64                          1662
    rhs       c65                          1038
    rhs       c66                          2005
    rhs       c67                          2694
    rhs       c68                          3299
    rhs       c69                          2036
    rhs       c70                          1758
BOUNDS
 LI bnd       x1        0
 LI bnd       x2        0
 LI bnd       x3        0
 LI bnd       x4        0
 LI bnd       x5        0
 LI bnd       x6        0
 LI bnd       x7        0
 LI bnd       x8        0
 LI bnd       x9        0
 LI bnd       x10       0
 LI bnd       x11       0
 LI bnd       x12       0
 LI bnd       x13       0
 LI bnd       x14       0
 LI bnd       x15       0
 LI bnd       x16       0
 LI bnd       x17       0
 LI bnd       x18       0
 LI bnd       x19       0
 LI bnd       x20       0
 LI bnd       x21       0
 LI bnd       x22       0
 LI bnd       x23       0
 LI bnd       x24       0
 LI bnd       x25       0
 LI bnd       x26       0
 LI bnd       x27       0
 LI bnd       x28       0
 LI bnd       x29       0
 LI bnd       x30       0
 LI bnd       x31       0
 LI bnd       x32       0
 LI bnd       x33       0
 LI bnd       x34       0
 LI bnd       x35       0
 LI bnd       x36       0
 LI bnd       x37       0
 LI bnd       x38       0
 LI bnd       x39       0
 LI bnd       x40       0
 LI bnd       x41       0
 LI bnd       x42       0
 LI bnd       x43       0
 LI bnd       x44       0
 LI bnd       x45       0
 LI bnd       x46       0
 LI bnd       x47       0
 LI bnd       x48       0
 LI bnd       x49       0
 LI bnd       x50       0
 LI bnd       x51       0
 LI bnd       x52       0
 LI bnd       x53       0
 LI bnd       x54       0
 LI bnd       x55       0
 LI bnd       x56       0
 LI bnd       x57       0
 LI bnd       x58       0
 LI bnd       x59       0
 LI bnd       x60       0
 LI bnd       x61       0
 LI bnd       x62       0
 LI bnd       x63       0
 LI bnd       x64       0
 LI bnd       x65       0
 LI bnd       x66       0
 LI bnd       x67       0
 LI bnd       x68       0
 LI bnd       x69       0
 LI bnd       x70       0
ENDATA
